(set-info :smt-lib-version 2.6)
(set-logic QF_LIA)
(set-info :source |
Alberto Griggio

|)
(set-info :category "crafted")
(set-info :status unsat)
(declare-fun v0 () Int)
(declare-fun v1 () Int)
(declare-fun v2 () Int)
(declare-fun v3 () Int)
(declare-fun s_0 () Int)
(declare-fun o_0 () Int)
(declare-fun s_1 () Int)
(declare-fun s_2 () Int)
(declare-fun o_1 () Int)
(declare-fun o_2 () Int)
(declare-fun s_3 () Int)
(declare-fun o_3 () Int)
(declare-fun s_4 () Int)
(declare-fun o_4 () Int)
(declare-fun s_5 () Int)
(declare-fun o_5 () Int)
(assert (let ((?v_8 (* v1 2)) (?v_22 (* v2 4)) (?v_21 (* v3 8)) (?v_14 (* v3 2)) (?v_0 (+ (* s_0 (- 128)) v1)) (?v_9 (* s_0 (- 256)))) (let ((?v_2 (+ (+ ?v_8 v0) ?v_9)) (?v_10 (* o_0 (- 256)))) (let ((?v_1 (+ ?v_2 ?v_10)) (?v_5 (* s_1 (- 64)))) (let ((?v_3 (+ ?v_5 v2)) (?v_4 (+ (* s_2 (- 32)) v3)) (?v_7 (+ (+ (+ v2 ?v_14) (* s_2 (- 64))) ?v_5))) (let ((?v_6 (+ (* o_1 (- 64)) ?v_7)) (?v_12 (+ (+ (+ (+ (+ (+ (+ (+ ?v_22 ?v_21) ?v_8) v0) (* s_2 (- 256))) (* s_1 (- 256))) (* o_1 (- 256))) ?v_9) ?v_10))) (let ((?v_11 (+ (* o_2 (- 256)) ?v_12)) (?v_13 (+ (* s_3 (- 128)) v3)) (?v_16 (+ (+ (* s_3 (- 256)) ?v_14) v2))) (let ((?v_15 (+ ?v_16 (* o_3 (- 256))))) (let ((?v_17 (+ (* s_4 (- 128)) ?v_15)) (?v_19 (+ (+ (+ (+ (+ (* s_3 (- 512)) (* v3 4)) (* v2 2)) (* o_3 (- 512))) (* s_4 (- 256))) v1))) (let ((?v_18 (+ ?v_19 (* o_4 (- 256))))) (let ((?v_20 (+ (* s_5 (- 128)) ?v_18)) (?v_24 (+ (+ (+ (+ (+ (+ (+ (+ (* s_3 (- 1024)) ?v_21) ?v_22) (* o_3 (- 1024))) (* s_4 (- 512))) ?v_8) (* o_4 (- 512))) (* s_5 (- 256))) v0))) (let ((?v_23 (+ (* o_5 (- 256)) ?v_24))) (and (and (and (and (and (and (and (and (and (and (and (and (and (and (and (and (and (and (and (and (and (and (and (and (and (and (and (and (and (and (and (and (and (and (and (and (and (and (and (and (and (<= 0 v0) (not (<= 256 v0))) (and (<= 0 v1) (not (<= 256 v1)))) (and (<= 0 v2) (not (<= 256 v2)))) (and (<= 0 v3) (not (<= 256 v3)))) (and (not (<= 2 s_0)) (<= 0 s_0))) (and (<= 0 ?v_0) (not (<= 128 ?v_0)))) (= (<= 1 s_0) (not (<= v1 128)))) (and (<= 0 o_0) (<= o_0 1))) (and (<= 0 ?v_1) (not (<= 256 ?v_1)))) (= (not (<= ?v_2 256)) (= o_0 1))) (and (not (<= 4 s_1)) (<= 0 s_1))) (and (<= 0 ?v_3) (not (<= 64 ?v_3)))) (= (<= 1 s_1) (not (<= v2 64)))) (and (not (<= 8 s_2)) (<= 0 s_2))) (and (<= 0 ?v_4) (not (<= 32 ?v_4)))) (= (<= 1 s_2) (not (<= v3 32)))) (and (<= 0 o_1) (<= o_1 1))) (and (<= 0 ?v_6) (not (<= 64 ?v_6)))) (= (not (<= ?v_7 64)) (= o_1 1))) (and (<= 0 o_2) (<= o_2 1))) (and (<= 0 ?v_11) (not (<= 256 ?v_11)))) (= (not (<= ?v_12 256)) (= o_2 1))) (and (not (<= 2 s_3)) (<= 0 s_3))) (and (<= 0 ?v_13) (not (<= 128 ?v_13)))) (= (<= 1 s_3) (not (<= v3 128)))) (and (<= 0 o_3) (<= o_3 1))) (and (<= 0 ?v_15) (not (<= 256 ?v_15)))) (= (not (<= ?v_16 256)) (= o_3 1))) (and (not (<= 2 s_4)) (<= 0 s_4))) (and (<= 0 ?v_17) (not (<= 128 ?v_17)))) (= (<= 1 s_4) (not (<= ?v_15 128)))) (and (<= 0 o_4) (<= o_4 1))) (and (<= 0 ?v_18) (not (<= 256 ?v_18)))) (= (not (<= ?v_19 256)) (= o_4 1))) (and (not (<= 2 s_5)) (<= 0 s_5))) (and (<= 0 ?v_20) (not (<= 128 ?v_20)))) (= (<= 1 s_5) (not (<= ?v_18 128)))) (and (<= 0 o_5) (<= o_5 1))) (and (<= 0 ?v_23) (not (<= 256 ?v_23)))) (= (not (<= ?v_24 256)) (= o_5 1))) (not (= (+ (+ (+ (+ (+ (+ (+ (+ (+ (+ (+ (* o_3 4) (* s_3 4)) (* s_4 2)) (* o_4 2)) s_5) o_5) (- s_2)) (- s_1)) (- o_1)) (- s_0)) (- o_0)) (- o_2)) 0)))))))))))))))
(check-sat)
(exit)
